NAME : batteryReplace_LKH3_g3_datafile_.23541.tour
COMMENT : Length = 23541
COMMENT : Found by LKH-3 [Keld Helsgaun] Wed Mar 22 11:57:41 2023
TYPE : TOUR
DIMENSION : 37
TOUR_SECTION
1
28
3
14
6
11
25
7
13
30
20
22
24
27
5
32
26
34
8
37
23
35
4
33
9
36
15
10
12
21
19
16
18
17
2
31
29
-1
EOF
